Normalized Data/p01_27_normalized_split0.vrp
NAME:p01_27_NORMALIZED_split
BEST_KNOWN: 0
COMMENT: 0
DIMENSION: 196
CAPACITY: 100
EDGE_WEIGHT_FORMAT: FUNCTION
EDGE_WEIGHT_TYPE: EXACT_2D
NODE_COORD_SECTION
1 0.00000 0.00000
2 -49 19
3 -49 19
4 -49 19
5 -49 19
6 16 45
7 16 45
8 16 45
9 16 45
10 16 45
11 16 45
12 16 45
13 -17 45
14 -17 45
15 -17 45
16 -17 45
17 -17 45
18 -16 -5
19 -16 -5
20 -16 -5
21 -16 -5
22 -16 -5
23 22 9
24 22 9
25 -8 -32
26 -8 -32
27 -8 -32
28 -8 -32
29 -8 -32
30 -8 -32
31 -18 -29
32 -18 -29
33 -18 -29
34 -18 27
35 -18 27
36 -18 27
37 -18 27
38 -13 0
39 -13 0
40 -7 46
41 -7 46
42 -36 -19
43 -36 -19
44 -36 -19
45 28 -21
46 28 -21
47 -47 32
48 -47 32
49 -47 32
50 -47 32
51 -47 32
52 -21 19
53 -21 19
54 -21 19
55 -21 19
56 -21 19
57 -21 -45
58 -21 -45
59 28 35
60 28 35
61 28 35
62 28 35
63 28 35
64 -38 -22
65 -38 -22
66 -38 -22
67 -17 42
68 -17 42
69 -17 42
70 18 15
71 18 15
72 18 15
73 18 15
74 18 15
75 6 -20
76 6 -20
77 6 -20
78 6 -20
79 6 -20
80 8 9
81 8 9
82 8 9
83 11 -5
84 11 -5
85 11 -5
86 11 -5
87 11 -5
88 11 -5
89 11 -5
90 28 -50
91 28 -50
92 28 -50
93 -33 32
94 -33 32
95 -33 32
96 -33 32
97 -33 32
98 -33 32
99 -23 -33
100 -23 -33
101 -23 -33
102 -23 -33
103 31 -32
104 31 -32
105 33 -9
106 33 -9
107 33 -9
108 33 -9
109 33 -9
110 -48 46
111 -48 46
112 35 48
113 35 48
114 35 48
115 35 48
116 35 48
117 35 48
118 24 31
119 24 31
120 24 31
121 24 31
122 24 31
123 17 31
124 17 31
125 17 31
126 -7 7
127 -7 7
128 -7 7
129 -7 7
130 -7 7
131 -15 -34
132 8 -16
133 8 -16
134 8 -16
135 8 -16
136 8 -16
137 8 -16
138 4 -6
139 0 -40
140 0 -40
141 0 -40
142 0 -40
143 -35 18
144 -35 18
145 25 6
146 25 6
147 5 -6
148 -7 35
149 -7 35
150 -7 35
151 -7 35
152 -7 35
153 -49 30
154 0 -19
155 0 -19
156 0 -19
157 0 -19
158 0 -19
159 14 -33
160 14 -33
161 14 -33
162 14 -33
163 14 -33
164 14 -33
165 48 5
166 48 5
167 48 5
168 48 5
169 -25 22
170 -25 22
171 -25 22
172 -25 22
173 -25 22
174 -25 22
175 -35 -19
176 -35 -19
177 -35 -19
178 -35 -19
179 -35 -19
180 -35 -19
181 38 -8
182 38 -8
183 38 -8
184 47 36
185 47 36
186 47 36
187 47 36
188 47 36
189 34 35
190 34 35
191 34 35
192 34 35
193 34 35
194 -28 6
195 -28 6
196 -28 6
DEMAND_SECTION
1 0
2 20
3 20
4 1
5 1
6 20
7 20
8 5
9 1
10 1
11 1
12 1
13 20
14 10
15 5
16 1
17 1
18 20
19 20
20 1
21 1
22 1
23 20
24 1
25 20
26 20
27 1
28 1
29 1
30 1
31 20
32 10
33 1
34 10
35 5
36 1
37 1
38 10
39 5
40 20
41 5
42 20
43 20
44 5
45 10
46 5
47 20
48 5
49 1
50 1
51 1
52 10
53 5
54 1
55 1
56 1
57 20
58 1
59 20
60 20
61 1
62 1
63 1
64 20
65 5
66 1
67 20
68 10
69 5
70 10
71 5
72 1
73 1
74 1
75 20
76 10
77 1
78 1
79 1
80 20
81 1
82 1
83 20
84 10
85 5
86 1
87 1
88 1
89 1
90 20
91 20
92 10
93 20
94 20
95 5
96 1
97 1
98 1
99 20
100 10
101 5
102 1
103 20
104 5
105 20
106 10
107 1
108 1
109 1
110 20
111 10
112 20
113 10
114 5
115 1
116 1
117 1
118 20
119 20
120 1
121 1
122 1
123 20
124 1
125 1
126 10
127 5
128 1
129 1
130 1
131 20
132 10
133 5
134 1
135 1
136 1
137 1
138 20
139 20
140 10
141 5
142 1
143 20
144 10
145 20
146 1
147 20
148 20
149 20
150 5
151 1
152 1
153 20
154 10
155 5
156 1
157 1
158 1
159 20
160 20
161 5
162 1
163 1
164 1
165 10
166 1
167 1
168 1
169 20
170 20
171 5
172 1
173 1
174 1
175 20
176 5
177 1
178 1
179 1
180 1
181 10
182 5
183 1
184 20
185 1
186 1
187 1
188 1
189 10
190 5
191 1
192 1
193 1
194 20
195 20
196 5
DEPOT_SECTION
1
-1
EOF