Normalized Data/p01_27_normalized_split0.sol
195 -1 3 2 4 152 46 47 48 49 50 172 173 170 55 53 -9 6 5 7 10 8 11 123 122 124 79 80 81 -17 18 19 20 21 38 37 -23 22 144 145 180 182 181 104 106 105 108 107 -32 31 30 98 100 101 99 56 57 156 157 155 154 -39 40 16 12 15 14 13 67 68 66 -45 44 102 103 91 89 90 153 -64 65 63 43 41 42 176 175 174 178 179 177 -70 190 191 188 189 192 114 112 111 113 115 116 183 185 187 186 184 165 167 166 164 -72 73 69 71 62 61 59 58 60 119 121 117 120 118 -74 77 78 75 76 161 158 160 159 162 163 134 135 132 136 131 133 -88 83 84 86 87 85 82 146 137 -95 93 92 97 96 94 110 109 171 168 -128 129 127 125 126 52 54 51 36 35 34 33 149 150 151 148 147 -130 26 28 29 27 24 25 139 140 138 141 -169 143 142 193 194 195 0 





OBJ=
1516.246
BEST_KNOWN=
0.000